RT is False
Default write of storage_offers_DA.csv just to have a file (but constraint should be inactive)
Reading model...
...model read.
creating competitive generators file...
...competitive generators recorded.
Loading data...
.. day-ahead data with real-time VRE data read.
Compiling instance...
...instance created.
Creating Offer Mitigation (model will solve as dispatch if TRUE)...
NOTE: storage offers will not be mitigated
...storage offer mitigation file created
Converting model to MPEC...
...converted
NOTE: initial MIP solve with only storage competitive to get feasible solution
Solving...

Welcome to IBM(R) ILOG(R) CPLEX(R) Interactive Optimizer 12.9.0.0
  with Simplex, Mixed Integer & Barrier Optimizers
5725-A06 5725-A29 5724-Y48 5724-Y49 5724-Y54 5724-Y55 5655-Y21
Copyright IBM Corp. 1988, 2019.  All Rights Reserved.

Type 'help' for a list of available commands.
Type 'help' followed by a command name for more
information on commands.

CPLEX> Logfile 'cplex.log' closed.
Logfile 'C:\Users\llavin\Desktop\test919\logs\tmp2o9mlsra.cplex.log' open.
CPLEX> New value for parallel optimization mode: -1
CPLEX> New value for mixed integer optimality gap tolerance: 0.01
CPLEX> New value for integrality tolerance: 1e-09
CPLEX> New value for feasibility tolerance: 0.01
CPLEX> New value for deterministic time limit in ticks: 75000
CPLEX> Problem 'C:\Users\llavin\Desktop\test919\logs\tmp1gfgmqk4.pyomo.lp' read.
Read time = 0.25 sec. (14.73 ticks)
CPLEX> Problem name         : C:\Users\llavin\Desktop\test919\logs\tmp1gfgmqk4.pyomo.lp
Objective sense      : Maximize
Variables            :   53805  [Nneg: 1,  Box: 22000,  Free: 4464,
                                 Binary: 27340]
Objective nonzeros   :    9022
Linear constraints   :  123205  [Less: 41346,  Greater: 59096,  Equal: 22763]
  Nonzeros           :  291746
  RHS nonzeros       :   67484

Variables            : Min LB: -5000.000        Max UB: 1000000.       
Objective nonzeros   : Min   : 0.008333333      Max   : 2500.000       
Linear constraints   :
  Nonzeros           : Min   : 0.008333333      Max   : 1000000.       
  RHS nonzeros       : Min   : 0.008333333      Max   : 1000000.       
CPLEX> CPXPARAM_Parallel                                -1
CPXPARAM_Simplex_Tolerances_Feasibility          0.01
CPXPARAM_DetTimeLimit                            75000
CPXPARAM_MIP_Tolerances_MIPGap                   0.01
CPXPARAM_MIP_Tolerances_Integrality              1.0000000000000001e-09
Tried aggregator 3 times.
MIP Presolve eliminated 88720 rows and 19041 columns.
MIP Presolve added 3368 rows and 0 columns.
MIP Presolve modified 24831 coefficients.
Aggregator did 12997 substitutions.
Reduced MIP has 24856 rows, 21208 columns, and 70913 nonzeros.
Reduced MIP has 8388 binaries, 0 generals, 0 SOSs, and 0 indicators.
Presolve time = 0.28 sec. (173.84 ticks)
Probing fixed 399 vars, tightened 2882 bounds.
Probing time = 1.23 sec. (898.73 ticks)
Tried aggregator 2 times.
MIP Presolve eliminated 909 rows and 811 columns.
MIP Presolve modified 2206 coefficients.
Aggregator did 39 substitutions.
Reduced MIP has 23908 rows, 20358 columns, and 68162 nonzeros.
Reduced MIP has 7983 binaries, 0 generals, 0 SOSs, and 0 indicators.
Presolve time = 0.09 sec. (68.42 ticks)
Probing time = 0.03 sec. (15.26 ticks)
Clique table members: 6212.
MIP emphasis: balance optimality and feasibility.
MIP search method: dynamic search.
Parallel mode: opportunistic, using up to 32 threads.
Root relaxation solution time = 0.39 sec. (487.23 ticks)

        Nodes                                         Cuts/
   Node  Left     Objective  IInf  Best Integer    Best Bound    ItCnt     Gap

      0     0        0.0000   628                      0.0000     6218         
*     0+    0                            0.0000        0.0000             0.00%
      0     0        cutoff              0.0000        0.0000     6218    0.00%
Elapsed time = 2.98 sec. (2096.92 ticks, tree = 0.01 MB, solutions = 1)

Root node processing (before b&c):
  Real time             =    3.00 sec. (2098.86 ticks)
Parallel b&c, 32 threads:
  Real time             =    0.00 sec. (0.00 ticks)
  Sync time (average)   =    0.00 sec.
  Wait time (average)   =    0.00 sec.
                          ------------
Total (root+branch&cut) =    3.00 sec. (2098.86 ticks)

Solution pool: 1 solution saved.

MIP - Integer optimal solution:  Objective =  0.0000000000e+00
Solution time =    3.02 sec.  Iterations = 6218  Nodes = 0
Deterministic time = 2099.02 ticks  (696.19 ticks/sec)

CPLEX> Incumbent solution written to file 'C:\Users\llavin\Desktop\test919\logs\tmpzo1dv2tn.cplex.sol'.
CPLEX> NOTE: no warmstart specified for MIP iteration, default behavior is true
NOTE: resolving with all competitive generators using storage-only solution to warmstart
Solving...

Welcome to IBM(R) ILOG(R) CPLEX(R) Interactive Optimizer 12.9.0.0
  with Simplex, Mixed Integer & Barrier Optimizers
5725-A06 5725-A29 5724-Y48 5724-Y49 5724-Y54 5724-Y55 5655-Y21
Copyright IBM Corp. 1988, 2019.  All Rights Reserved.

Type 'help' for a list of available commands.
Type 'help' followed by a command name for more
information on commands.

CPLEX> Logfile 'cplex.log' closed.
Logfile 'C:\Users\llavin\Desktop\test919\logs\tmp3kzrss2i.cplex.log' open.
CPLEX> New value for parallel optimization mode: -1
CPLEX> New value for mixed integer optimality gap tolerance: 0.01
CPLEX> New value for integrality tolerance: 1e-09
CPLEX> New value for feasibility tolerance: 0.01
CPLEX> New value for deterministic time limit in ticks: 75000
CPLEX> Problem 'C:\Users\llavin\Desktop\test919\logs\tmplfuo4oli.pyomo.lp' read.
Read time = 0.23 sec. (14.75 ticks)
CPLEX> MIP start file 'C:\Users\llavin\Desktop\test919\logs\tmpkoehpm9g.cplex.mst' read.
CPLEX> Problem name         : C:\Users\llavin\Desktop\test919\logs\tmplfuo4oli.pyomo.lp
Objective sense      : Maximize
Variables            :   54525  [Nneg: 1,  Box: 22720,  Free: 4464,
                                 Binary: 27340]
Objective nonzeros   :    9718
Linear constraints   :  123205  [Less: 41346,  Greater: 59096,  Equal: 22763]
  Nonzeros           :  291746
  RHS nonzeros       :   67484

Variables            : Min LB: -5000.000        Max UB: 1000000.       
Objective nonzeros   : Min   : 0.008333333      Max   : 2500.000       
Linear constraints   :
  Nonzeros           : Min   : 0.008333333      Max   : 1000000.       
  RHS nonzeros       : Min   : 0.008333333      Max   : 1000000.       
CPLEX> CPXPARAM_Parallel                                -1
CPXPARAM_Simplex_Tolerances_Feasibility          0.01
CPXPARAM_DetTimeLimit                            75000
CPXPARAM_MIP_Tolerances_MIPGap                   0.01
CPXPARAM_MIP_Tolerances_Integrality              1.0000000000000001e-09
Warning:  No solution found from 1 MIP starts.
Retaining values of one MIP start for possible repair.
Tried aggregator 3 times.
MIP Presolve eliminated 88720 rows and 19761 columns.
MIP Presolve added 3368 rows and 0 columns.
MIP Presolve modified 24831 coefficients.
Aggregator did 12997 substitutions.
Reduced MIP has 24856 rows, 21208 columns, and 70913 nonzeros.
Reduced MIP has 8388 binaries, 0 generals, 0 SOSs, and 0 indicators.
Presolve time = 0.28 sec. (174.20 ticks)
Probing fixed 399 vars, tightened 2882 bounds.
Probing time = 1.23 sec. (898.73 ticks)
Tried aggregator 2 times.
MIP Presolve eliminated 909 rows and 811 columns.
MIP Presolve modified 2206 coefficients.
Aggregator did 39 substitutions.
Reduced MIP has 23908 rows, 20358 columns, and 68162 nonzeros.
Reduced MIP has 7983 binaries, 0 generals, 0 SOSs, and 0 indicators.
Presolve time = 0.09 sec. (68.43 ticks)
Probing time = 0.03 sec. (15.26 ticks)
Clique table members: 6212.
MIP emphasis: balance optimality and feasibility.
MIP search method: dynamic search.
Parallel mode: opportunistic, using up to 32 threads.
Root relaxation solution time = 0.34 sec. (257.27 ticks)

        Nodes                                         Cuts/
   Node  Left     Objective  IInf  Best Integer    Best Bound    ItCnt     Gap

      0     0    71359.3180  1761                  71359.3180     6259         
*     0+    0                            0.0000    71359.3180              --- 
      0     0    66847.7308   782        0.0000     Cuts: 559     6518     --- 
*     0+    0                            0.0000    66847.7308              --- 
      0     0    66847.7308   476        0.0000    Cuts: 1781     6898     --- 
      0     0    66847.7308   240        0.0000    Cuts: 1298     7254     --- 
      0     0    58181.3988   210        0.0000     Cuts: 190     7593     --- 
      0     0    58175.9786   182        0.0000     Cuts: 289     7686     --- 
      0     0    58172.3364   176        0.0000     Cuts: 134     7720     --- 
      0     0    58172.3325   174        0.0000     Cuts: 107     7739     --- 
      0     0    58166.2121   173        0.0000     Cuts: 117     7773     --- 
      0     0    58165.2658   171        0.0000     Cuts: 102     7788     --- 
Repair heuristic found nothing.
      0     1        cutoff              0.0000      Cuts: 23     7937     --- 
Elapsed time = 9.03 sec. (4992.07 ticks, tree = 0.02 MB, solutions = 2)
    281    93        cutoff              0.0000    23527.6704    10277     --- 
    797   111    13512.1581    54        0.0000    23527.6704    10172     --- 
   1561   407     9827.1983    41        0.0000    23527.6704    12153     --- 
   2690  1361     9948.8390    40        0.0000    23527.6704    16683     --- 
   3681  1893     6219.1084    50        0.0000    22464.6504    18061     --- 
   4360  2563     3421.4311    33        0.0000    22464.6504    20005     --- 
   4864  2805    18644.8165    58        0.0000    22464.6504    20778     --- 
   5312  3314    21537.4053   104        0.0000    22464.6504    22536     --- 
   5777  3040     9849.9884    44        0.0000    22464.6504    21733     --- 
   6857  4146     5907.4325    28        0.0000    22464.6504    27134     --- 
Elapsed time = 21.39 sec. (8095.21 ticks, tree = 29.55 MB, solutions = 2)
*  6877  3782      integral     0        0.0000        0.0000    44580    0.00%

GUB cover cuts applied:  4
Clique cuts applied:  5
Cover cuts applied:  87
Implied bound cuts applied:  23
Flow cuts applied:  508
Mixed integer rounding cuts applied:  133
Gomory fractional cuts applied:  71

Root node processing (before b&c):
  Real time             =    7.33 sec. (4978.27 ticks)
Parallel b&c, 32 threads:
  Real time             =   19.08 sec. (7580.44 ticks)
  Sync time (average)   =    1.04 sec.
  Wait time (average)   =    0.00 sec.
                          ------------
Total (root+branch&cut) =   26.41 sec. (12558.71 ticks)

Solution pool: 2 solutions saved.

MIP - Integer optimal solution:  Objective =  4.9512692997e-05
Solution time =   26.42 sec.  Iterations = 44580  Nodes = 6877
Deterministic time = 12558.87 ticks  (475.32 ticks/sec)

CPLEX> Incumbent solution written to file 'C:\Users\llavin\Desktop\test919\logs\tmpgolelmvh.cplex.sol'.
CPLEX> Exporting results... 
